tsp_instances/TSP20/instance110.tsp
NODE_COORD_SECTION
0 167 147
1 195 191
2 188 45
3 200 14
4 43 94
5 180 84
6 125 10
7 127 160
8 2 177
9 189 3
10 146 194
11 92 111
12 3 111
13 103 151
14 8 196
15 198 141
16 170 140
17 139 46
18 50 121
19 97 127
