tsp_instances/TSP20/instance110.opt.tour
TOUR_SECTION
1
16
2
11
8
14
15
9
13
5
19
20
12
18
7
10
4
3
6
17
-1